HUN,8,6,915
1,30,5,29,3,30,0,24,2,24,4,30
4,28,5,23,3,24,2,22,1,25,0,22
5,25,0,25,3,27,2,21,1,21,4,24
4,27,5,21,2,25,0,24,3,29,1,25
3,28,1,21,4,25,5,29,2,25,0,27
1,26,5,26,4,29,3,21,0,22,2,26
5,29,4,26,3,29,1,29,2,28,0,26
5,30,4,29,2,22,1,29,3,24,0,26
